n_res = 4;
rcap = [29, 24, 151, 117];
rtype = [1, 1, 2, 2];
n_tasks = 20;
modes = [ {1, 2, 3}, {4, 5, 6}, {7, 8, 9}, {10, 11, 12}, {13, 14, 15}, {16, 17, 18}, {19, 20, 21}, {22, 23, 24}, {25, 26, 27}, {28, 29, 30}, {31, 32, 33}, {34, 35, 36}, {37, 38, 39}, {40, 41, 42}, {43, 44, 45}, {46, 47, 48}, {49, 50, 51}, {52, 53, 54}, {55, 56, 57}, {58, 59, 60} ];
succ = [ {4, 5, 7}, {6, 9, 11}, {7, 8}, {16, 20}, {12}, {17}, {14, 15}, {9, 10, 13}, {12, 15}, {12, 17}, {13, 15, 16}, {14}, {18}, {16, 19, 20}, {18, 19}, {18}, {19, 20}, {}, {}, {} ];
n_opt = 60;
dur = [1, 2, 9, 3, 6, 9, 1, 3, 6, 2, 4, 7, 1, 8, 10, 3, 6, 8, 1, 3, 7, 2, 9, 10, 6, 6, 8, 1, 6, 7, 3, 7, 7, 5, 9, 10, 2, 2, 5, 2, 7, 8, 2, 4, 4, 3, 4, 8, 1, 1, 10, 2, 3, 9, 2, 9, 10, 2, 4, 5];
rreq = [|  5,  4,  3,  6,  5,  4,  8,  7,  3,  6,  5,  3,  8,  8,  8,  9,  6,  1, 10, 10,  9,  5,  4,  4,  3,  5,  1,  6,  5,  3,  6,  4,  5,  5,  4,  3,  6,  5,  1,  9,  9,  9,  6,  5,  2,  6,  3,  1,  2,  2,  1,  8,  6,  3,  6,  6,  5,  9,  8,  6
        |  9,  8,  5,  5,  5,  4,  5,  5,  5,  2,  2,  1,  4,  4,  3,  5,  4,  3,  9,  8,  6,  9,  7,  6,  5,  5,  4,  9,  8,  7, 10,  9,  9,  3,  3,  2,  6,  7,  5, 10,  9,  9,  6,  3,  5,  2,  2,  2, 10, 10, 10,  7,  7,  6,  6,  4,  3,  5,  4,  4
        |  8,  7,  4, 10, 10, 10, 10,  9,  8,  9,  7,  3,  6,  5,  4,  8,  5,  2,  8,  8,  5,  8,  7,  7,  9,  8,  7,  9,  6,  6,  5,  2,  3,  2,  1,  1,  9,  9,  8,  9,  4,  2,  7,  5,  6,  7,  4,  3,  5,  4,  3,  9,  9,  7,  7,  5,  5,  6,  6,  4
        |  2,  2,  1,  5,  2,  2,  4,  2,  1,  8,  7,  7,  8,  5,  1,  6,  6,  4,  4,  3,  2,  6,  3,  2,  6,  6,  4,  7,  7,  7,  2,  2,  1,  6,  6,  3,  4,  4,  2,  9,  7,  2,  7,  5,  6,  7,  5,  1,  7,  8,  7,  5,  2,  1,  8,  5,  4,  5,  4,  4 |];
